Version identifier: 12.10.0.0 | 2019-11-26 | 843d4de
CPXPARAM_MIP_Interval                            10
CPXPARAM_MIP_Tolerances_AbsMIPGap                0.98999999999999999
Tried aggregator 2 times.
MIP Presolve eliminated 653 rows and 421 columns.
MIP Presolve modified 1 coefficients.
Aggregator did 25 substitutions.
Reduced MIP has 79 rows, 82 columns, and 271 nonzeros.
Reduced MIP has 36 binaries, 46 generals, 0 SOSs, and 0 indicators.
Presolve time = 0.01 sec. (0.80 ticks)
Found incumbent of value 4.000000 after 0.03 sec. (1.16 ticks)
Probing fixed 0 vars, tightened 7 bounds.
Probing changed sense of 4 constraints.
Probing time = 0.00 sec. (0.02 ticks)
Tried aggregator 1 time.
Detecting symmetries...
MIP Presolve eliminated 7 rows and 6 columns.
MIP Presolve modified 9 coefficients.
Reduced MIP has 72 rows, 76 columns, and 246 nonzeros.
Reduced MIP has 32 binaries, 44 generals, 0 SOSs, and 0 indicators.
Presolve time = 0.00 sec. (0.18 ticks)
Probing time = 0.00 sec. (0.01 ticks)
MIP emphasis: balance optimality and feasibility.
MIP search method: dynamic search.
Parallel mode: deterministic, using up to 4 threads.
Root relaxation solution time = 0.00 sec. (0.16 ticks)

        Nodes                                         Cuts/
   Node  Left     Objective  IInf  Best Integer    Best Bound    ItCnt     Gap

*     0+    0                            4.0000       16.0000           300.00%
*     0+    0                            7.0000       16.0000           128.57%
      0     0       10.8333    13        7.0000       10.8333       31   54.76%
      0     0       10.7333    13        7.0000      Cuts: 11       43   53.33%
*     0+    0                            8.0000       10.7333            34.17%
      0     0       10.6667    13        8.0000      Cuts: 30       61   33.33%
      0     0       10.5714    13        8.0000      Cuts: 20       83   32.14%
      0     0       10.5185    13        8.0000      Cuts: 25       97   31.48%
      0     0       10.5185    13        8.0000      Cuts: 22      108   31.48%
Detecting symmetries...
      0     0       10.5185    13        8.0000       Cuts: 3      112   31.48%
      0     0       10.5185    13        8.0000      Cuts: 20      136   31.48%
*     0+    0                            9.0000       10.5185            16.87%
      0     0        cutoff              9.0000        9.0000      136    0.00%
Elapsed time = 0.07 sec. (8.10 ticks, tree = 0.01 MB, solutions = 4)
the number of Nodes = 0
